min_signal_strength = 5;
TOWER = {t0, t1, t2, t3, t4, t5, t6, t7, t8, t9, t10, t11, t12, t13, t14};
HANDSET = {h0, h1, h2, h3, h4, h5, h6, h7, h8, h9, h10, h11, h12, h13, h14, h15, h16, h17, h18, h19, h20, h21, h22, h23, h24, h25, h26, h27, h28, h29, h30, h31, h32, h33, h34, h35, h36, h37, h38, h39, h40, h41, h42, h43, h44, h45, h46, h47, h48, h49, h50, h51, h52, h53, h54, h55, h56, h57, h58, h59, h60, h61, h62, h63, h64, h65, h66, h67, h68, h69};
distance = distance = distance = distance = [|58.55, 56.32, 4.00, 47.04, 46.17, 35.01, 35.23, 39.12, 65.31, 54.74, 28.43, 19.... ]; // array too long to display, dimensions: (30)
 // array too long to display, dimensions: (981)

demand = demand = [4, 47, 8, 62, 23, 53, 88, 83, 2, 26, 38, 48, 6, 23, 85, 34, 21, 45, 7, 81, 38, 9... ]; // array too long to display, dimensions: (70)

capacity = [300, 300, 300, 300, 300, 300, 300, 300, 300, 300, 300, 300, 300, 300, 300];
